NAME 
ROWS
 N  OBJ
 L  R0      
 L  R1      
 L  R2      
 E  R3      
 E  R4      
 E  R5      
 E  R6      
 E  R7      
 E  R8      
 E  R9      
 E  R10     
 E  R11     
 E  R12     
COLUMNS
    MARKER    'MARKER'                 'INTORG'
    I0(6)     OBJ       -16
    I0(6)     R0        -66
    I0(6)     R1        191
    I0(6)     R2        48
    I0(6)     R4        19
    I0(6)     R5        16
    I0(6)     R12       1
    I1(7)     OBJ       157
    I1(7)     R0        129
    I1(7)     R1        40
    I1(7)     R2        -11
    I1(7)     R4        4
    I1(7)     R5        7
    I1(7)     R6        10
    I1(7)     R12       1
    I2(7)     OBJ       123
    I2(7)     R0        -98
    I2(7)     R1        -168
    I2(7)     R2        -106
    I2(7)     R4        16
    I2(7)     R5        -1
    I2(7)     R6        5
    I2(7)     R12       1
    I3(8)     OBJ       108
    I3(8)     R0        -35
    I3(8)     R1        -139
    I3(8)     R2        -177
    I3(8)     R3        8
    I3(8)     R4        12
    I3(8)     R5        19
    I3(8)     R6        10
    I3(8)     R12       1
    MARKER    'MARKER'                 'INTEND'
    C4(11)    OBJ       -8
    C4(11)    R0        -9
    C4(11)    R1        5
    C4(11)    R2        2
    C4(11)    R3        1
    C4(11)    R4        6
    C4(11)    R5        1
    C4(11)    R6        -1
    C4(11)    R7        14
    C4(11)    R8        6
    C4(11)    R9        9
    C4(11)    R10       3
    C5(8)     OBJ       5
    C5(8)     R0        9
    C5(8)     R3        1
    C5(8)     R5        4
    C5(8)     R6        7
    C5(8)     R7        10
    C5(8)     R8        11
    C5(8)     R9        6
    C5(8)     R11       6
    C6(11)    OBJ       1
    C6(11)    R0        -1
    C6(11)    R1        2
    C6(11)    R2        -2
    C6(11)    R3        8
    C6(11)    R4        10
    C6(11)    R5        7
    C6(11)    R6        4
    C6(11)    R7        19
    C6(11)    R9        18
    C6(11)    R10       14
    C6(11)    R11       11
    C7(11)    OBJ       6
    C7(11)    R0        9
    C7(11)    R1        4
    C7(11)    R2        3
    C7(11)    R3        -1
    C7(11)    R4        2
    C7(11)    R5        11
    C7(11)    R6        9
    C7(11)    R7        2
    C7(11)    R9        16
    C7(11)    R10       2
    C7(11)    R11       6
    C8(8)     OBJ       -1
    C8(8)     R0        -6
    C8(8)     R1        8
    C8(8)     R2        4
    C8(8)     R4        14
    C8(8)     R5        13
    C8(8)     R6        -1
    C8(8)     R10       15
    C8(8)     R11       10
    C9(11)    R0        -9
    C9(11)    R1        7
    C9(11)    R2        6
    C9(11)    R3        6
    C9(11)    R4        15
    C9(11)    R5        7
    C9(11)    R6        8
    C9(11)    R8        5
    C9(11)    R9        8
    C9(11)    R10       6
    C9(11)    R11       10
    C10(1)    R3        1
    C11(1)    R4        1
    C12(1)    R5        1
    C13(1)    R6        1
    C14(1)    R7        1
    C15(1)    R8        1
    C16(1)    R9        1
    C17(1)    R10       1
    C18(1)    R11       1
    C19(1)    R12       1
RHS
    RHS1      R0        -1.3301020408163265e+02
    RHS1      R1        2.4284693877551021e+02
    RHS1      R2        7.1244897959183675e+01
    RHS1      R3        81
    RHS1      R4        95
    RHS1      R5        91
    RHS1      R6        88
    RHS1      R7        75
    RHS1      R8        64
    RHS1      R9        99
    RHS1      R10       79
    RHS1      R11       95
    RHS1      R12       1
BOUNDS
 UP BND1      I0(6)     2
 UP BND1      I1(7)     2
 UP BND1      I2(7)     2
 UP BND1      I3(8)     2
ENDATA
